>> Start of run:  11-NOV-2019  16:05:01

reinit: Reading from standard input
************************** Dump of input data file ****************************
SystemName TiS3
SystemLabel TiS3
NumberOfAtoms 72
SpinPolarized .true.
NumberOfSpecies 3
%block ChemicalSpeciesLabel
1  22 Ti
2  16 S
3  6 C
%endblock ChemicalSpeciesLabel
XC.functional		GGA
XC.authors		PBE
PAO.BasisSize		DZP
PAO.EnergyShift		65 meV
LatticeConstant 1.0 Ang
%block LatticeParameters
4.94760 16.89350 25.00000 90.00000 90.00000 90.00000
%endblock LatticeParameters
AtomicCoordinatesFormat  Fractional
%block AtomicCoordinatesAndAtomicSpecies
0.32844800	0.05000000	0.10474200	1
0.32844800	0.25000000	0.10474200	1
0.32844800	0.45000000	0.10474200	1
0.32844800	0.65000000	0.10474200	1
0.32844800	0.85000000	0.10474200	1
0.82482600	0.15000000	0.00000000	1
0.82482600	0.35000000	0.00000000	1
0.82482600	0.55000000	0.00000000	1
0.82482600	0.75000000	0.00000000	1
0.82482600	0.95000000	0.00000000	1
0.61387700	0.05000000	0.94013700	2
0.61387700	0.25000000	0.94013700	2
0.61387700	0.45000000	0.94013700	2
0.61387700	0.65000000	0.94013700	2
0.61387700	0.85000000	0.94013700	2
0.53939700	0.15000000	0.16460500	2
0.53939700	0.35000000	0.16460500	2
0.53939700	0.55000000	0.16460500	2
0.53939700	0.75000000	0.16460500	2
0.53939700	0.95000000	0.16460500	2
0.82469000	0.05000000	0.07019800	2
0.82469000	0.25000000	0.07019800	2
0.82469000	0.45000000	0.07019800	2
0.82469000	0.65000000	0.07019800	2
0.82469000	0.85000000	0.07019800	2
0.32858300	0.15000000	0.03454400	2
0.32858300	0.35000000	0.03454400	2
0.32858300	0.55000000	0.03454400	2
0.32858300	0.75000000	0.03454400	2
0.32858300	0.95000000	0.03454400	2
0.04157400	0.05000000	0.93895800	2
0.04157400	0.25000000	0.93895800	2
0.04157400	0.45000000	0.93895800	2
0.04157400	0.65000000	0.93895800	2
0.04157400	0.85000000	0.93895800	2
0.11170000	0.15000000	0.16578400	2
0.11170000	0.35000000	0.16578400	2
0.11170000	0.55000000	0.16578400	2
0.11170000	0.75000000	0.16578400	2
0.11170000	0.95000000	0.16578400	2
0.37500000	0.20835500	0.29284560	3
0.37500000	0.45835500	0.29284560	3
0.37500000	0.70835500	0.29284560	3
0.37500000	0.95835500	0.29284560	3
0.87500000	0.20835500	0.29284560	3
0.87500000	0.45835500	0.29284560	3
0.87500000	0.70835500	0.29284560	3
0.87500000	0.95835500	0.29284560	3
0.37500000	0.04164500	0.29284560	3
0.37500000	0.29164500	0.29284560	3
0.37500000	0.54164500	0.29284560	3
0.37500000	0.79164500	0.29284560	3
0.87500000	0.04164500	0.29284560	3
0.87500000	0.29164500	0.29284560	3
0.87500000	0.54164500	0.29284560	3
0.87500000	0.79164500	0.29284560	3
0.12500000	0.08335500	0.29284560	3
0.12500000	0.33335500	0.29284560	3
0.12500000	0.58335500	0.29284560	3
0.12500000	0.83335500	0.29284560	3
0.62500000	0.08335500	0.29284560	3
0.62500000	0.33335500	0.29284560	3
0.62500000	0.58335500	0.29284560	3
0.62500000	0.83335500	0.29284560	3
0.12500000	0.16664500	0.29284560	3
0.12500000	0.41664500	0.29284560	3
0.12500000	0.66664500	0.29284560	3
0.12500000	0.91664500	0.29284560	3
0.62500000	0.16664500	0.29284560	3
0.62500000	0.41664500	0.29284560	3
0.62500000	0.66664500	0.29284560	3
0.62500000	0.91664500	0.29284560	3
%endblock AtomicCoordinatesAndAtomicSpecies
DM.MixingWeight		0.05
DM.NumberPulay		8
DM.Tolerance		1.d-4
MaxSCFIterations		300
MD.TypeOfRun		CG
MD.VariableCell		.false.
MD.MaxForceTol		0.01 eV/Ang
MD.NumCGsteps		1000
#MD.MaxCGDispl		0.15 Ang
#%block GeometryConstraints
# stress 3 4 5
# position  7 0.0  0.0  1.0
#%endblock GeometryConstraints
MeshCutoff		300.0 Ry
WriteCoorXmol		yes
%block kgrid_Monkhorst_Pack
   6   0   0  0.0
   0   2   0  0.0
   0   0   1  0.0
%endblock Kgrid_Monkhorst_Pack
UseSaveData           .true.
SaveRho                 .true.       # Write valence pseudocharge at the mesh
************************** End of input data file *****************************

reinit: -----------------------------------------------------------------------
reinit: System Name: TiS3
reinit: -----------------------------------------------------------------------
reinit: System Label: TiS3
reinit: -----------------------------------------------------------------------

initatom: Reading input for the pseudopotentials and atomic orbitals ----------
 Species number:            1  Label: Ti Atomic number:          22
 Species number:            2  Label: S Atomic number:          16
 Species number:            3  Label: C Atomic number:           6
Ground state valence configuration:   4s02  3d02
Reading pseudopotential information in formatted form from Ti.psf

Valence configuration for pseudopotential generation:
4s( 2.00) rc: 2.71
4p( 0.00) rc: 2.71
3d( 2.00) rc: 2.45
4f( 0.00) rc: 2.45
Ground state valence configuration:   3s02  3p04
Reading pseudopotential information in formatted form from S.psf

Valence configuration for pseudopotential generation:
3s( 2.00) rc: 1.61
3p( 4.00) rc: 1.76
3d( 0.00) rc: 1.92
4f( 0.00) rc: 1.92
Ground state valence configuration:   2s02  2p02
Reading pseudopotential information in formatted form from C.psf

Valence configuration for pseudopotential generation:
2s( 2.00) rc: 1.54
2p( 2.00) rc: 1.54
3d( 0.00) rc: 1.54
4f( 0.00) rc: 1.54
For Ti, standard SIESTA heuristics set lmxkb to 3
 (one more than the basis l, including polarization orbitals).
Use PS.lmax or PS.KBprojectors blocks to override.
For S, standard SIESTA heuristics set lmxkb to 3
 (one more than the basis l, including polarization orbitals).
Use PS.lmax or PS.KBprojectors blocks to override.
For C, standard SIESTA heuristics set lmxkb to 3
 (one more than the basis l, including polarization orbitals).
Use PS.lmax or PS.KBprojectors blocks to override.

<basis_specs>
Ti                   Z=  22    Mass=  47.880        Charge= 0.17977+309
Lmxo=2 Lmxkb= 3    BasisType=split      Semic=F
L=0  Nsemic=0  Cnfigmx=4
          n=1  nzeta=2  polorb=1
            splnorm:   0.15000
               vcte:    0.0000
               rinn:    0.0000
                rcs:    0.0000      0.0000
            lambdas:    1.0000      1.0000
L=1  Nsemic=0  Cnfigmx=4
L=2  Nsemic=0  Cnfigmx=3
          n=1  nzeta=2  polorb=0
            splnorm:   0.15000
               vcte:    0.0000
               rinn:    0.0000
                rcs:    0.0000      0.0000
            lambdas:    1.0000      1.0000
L=0  Nkbl=1  erefs: 0.17977+309
L=1  Nkbl=1  erefs: 0.17977+309
L=2  Nkbl=1  erefs: 0.17977+309
L=3  Nkbl=1  erefs: 0.17977+309
</basis_specs>

atom: Called for Ti                    (Z =  22)

read_vps: Pseudopotential generation method:
read_vps: ATM3      Troullier-Martins
Total valence charge:    4.00000

read_vps: Pseudopotential includes a core correction:
read_vps: Pseudo-core for xc-correction

xc_check: Exchange-correlation functional:
xc_check: GGA Perdew, Burke & Ernzerhof 1996
V l=0 = -2*Zval/r beyond r=  3.2266
V l=1 = -2*Zval/r beyond r=  3.2266
V l=2 = -2*Zval/r beyond r=  3.2266
V l=3 = -2*Zval/r beyond r=  3.2266
All V_l potentials equal beyond r=  2.6749
This should be close to max(r_c) in ps generation
All pots = -2*Zval/r beyond r=  3.2266

VLOCAL1: 99.0% of the norm of Vloc inside      6.067 Ry
VLOCAL1: 99.9% of the norm of Vloc inside     13.826 Ry
atom: Maximum radius for 4*pi*r*r*local-pseudopot. charge    3.18650
atom: Maximum radius for r*vlocal+2*Zval:    2.77713
GHOST: No ghost state for L =  0
GHOST: No ghost state for L =  1
GHOST: No ghost state for L =  2
GHOST: No ghost state for L =  3

KBgen: Kleinman-Bylander projectors:
   l= 0   rc=  3.656209   el= -0.325100   Ekb=  2.704161   kbcos=  0.283955
   l= 1   rc=  3.748769   el= -0.108822   Ekb=  1.406241   kbcos=  0.273406
   l= 2   rc=  3.267166   el= -0.324546   Ekb= -7.701284   kbcos= -0.636873
   l= 3   rc=  3.990551   el=  0.003060   Ekb= -1.295170   kbcos= -0.013833

KBgen: Total number of  Kleinman-Bylander projectors:   16
atom: -------------------------------------------------------------------------

atom: SANKEY-TYPE ORBITALS:
atom: Selected multiple-zeta basis: split

SPLIT: Orbitals with angular momentum L= 0

SPLIT: Basis orbitals for state 4s

SPLIT: PAO cut-off radius determined from an
SPLIT: energy shift=  0.004777 Ry

   izeta = 1
                 lambda =    1.000000
                     rc =    8.448122
                 energy =   -0.320243
                kinetic =    0.225933
    potential(screened) =   -0.546176
       potential(ionic) =   -2.398113

   izeta = 2
                 rmatch =    7.181023
              splitnorm =    0.150000
                 energy =   -0.277986
                kinetic =    0.361117
    potential(screened) =   -0.639103
       potential(ionic) =   -2.603312

[...]

SPLIT: Basis orbitals for state 3d

[...]

POLgen: Perturbative polarization orbital with L=  1

POLgen: Polarization orbital for state 4s

   izeta = 1
                     rc =    8.448122
                 energy =   -0.098258
                kinetic =    0.420436
    potential(screened) =   -0.518694
       potential(ionic) =   -2.271734
atom: Total number of Sankey-type orbitals: 15

atm_pop: Valence configuration (for local Pseudopot. screening):
 4s( 2.00)
 4p( 0.00)
 3d( 2.00)
Vna: chval, zval:    4.00000   4.00000

Vna:  Cut-off radius for the neutral-atom potential:   8.448122
comcore: Pseudo-core radius Rcore=  4.578782

atom: _________________________________________________________________________

[...]

SPLIT: Basis orbitals for state 3p

[...]

POLgen: Polarization orbital for state 3p

[...]

atm_pop: Valence configuration (for local Pseudopot. screening):
 3s( 2.00)
 3p( 4.00)
Vna: chval, zval:    6.00000   6.00000

[...]

<basis_specs>
C                    Z=   6    Mass=  12.010        Charge= 0.17977+309
Lmxo=1 Lmxkb= 3    BasisType=split      Semic=F
L=0  Nsemic=0  Cnfigmx=2
          n=1  nzeta=2  polorb=0
            splnorm:   0.15000
               vcte:    0.0000
               rinn:    0.0000
                rcs:    0.0000      0.0000
            lambdas:    1.0000      1.0000
L=1  Nsemic=0  Cnfigmx=2
          n=1  nzeta=2  polorb=1
            splnorm:   0.15000
               vcte:    0.0000
               rinn:    0.0000
                rcs:    0.0000      0.0000
            lambdas:    1.0000      1.0000
L=0  Nkbl=1  erefs: 0.17977+309
L=1  Nkbl=1  erefs: 0.17977+309
L=2  Nkbl=1  erefs: 0.17977+309
L=3  Nkbl=1  erefs: 0.17977+309
</basis_specs>

atom: Called for C                     (Z =   6)

read_vps: Pseudopotential generation method:
read_vps: ATM3      Troullier-Martins
Total valence charge:    4.00000

read_vps: Pseudopotential includes a core correction:
read_vps: Pseudo-core for xc-correction

xc_check: Exchange-correlation functional:
xc_check: GGA Perdew, Burke & Ernzerhof 1996
V l=0 = -2*Zval/r beyond r=  1.5227
V l=1 = -2*Zval/r beyond r=  1.5227
V l=2 = -2*Zval/r beyond r=  1.5227
V l=3 = -2*Zval/r beyond r=  1.5038
All V_l potentials equal beyond r=  1.5227
This should be close to max(r_c) in ps generation
All pots = -2*Zval/r beyond r=  1.5227

VLOCAL1: 99.0% of the norm of Vloc inside     18.722 Ry
VLOCAL1: 99.9% of the norm of Vloc inside     42.668 Ry
atom: Maximum radius for 4*pi*r*r*local-pseudopot. charge    1.83678
atom: Maximum radius for r*vlocal+2*Zval:    1.58088
GHOST: No ghost state for L =  0
[...]

siesta: ******************** Simulation parameters ****************************
siesta:
siesta: The following are some of the parameters of the simulation.
siesta: A complete list of the parameters used, including default values,
siesta: can be found in file out.fdf
siesta:
redata: Non-Collinear-spin run           =     F
redata: SpinPolarized (Up/Down) run      =     T
redata: Number of spin components        =     2
redata: Long output                      =     F
redata: Number of Atomic Species         =        3
redata: Charge density info will appear in .RHO file
redata: Write Mulliken Pop.              =     NO
redata: Mesh Cutoff                      =   300.0000  Ry
redata: Net charge of the system         =     0.0000 |e|
redata: Max. number of SCF Iter          =      300
redata: Performing Pulay mixing using    =     8 iterations
redata: Mix DM in first SCF step ?       =     F
redata: Write Pulay info on disk?        =     F
redata: Discard 1st Pulay DM after  kick =     F
redata: New DM Mixing Weight             =     0.0500
redata: New DM Occupancy tolerance       = 0.000000000001
redata: No kicks to SCF
redata: DM Mixing Weight for Kicks       =     0.5000
redata: DM Tolerance for SCF             =     0.000100
redata: Require Energy convergence for SCF =     F
redata: DM Energy tolerance for SCF      =     0.000100 eV
redata: Require Harris convergence for SCF =     F
redata: DM Harris energy tolerance for SCF =     0.000100 eV
redata: Antiferro initial spin density   =     F
redata: Using Saved Data (generic)   =     T
redata: Use continuation files for DM    =     T
redata: Neglect nonoverlap interactions  =     F
redata: Method of Calculation            =     Diagonalization
redata: Divide and Conquer               =     T
redata: Electronic Temperature           =     0.0019  Ry
redata: Fix the spin of the system       =     F
redata: Dynamics option                  =     CG coord. optimization
redata: Variable cell                    =     F
redata: Use continuation files for CG    =     T
redata: Max atomic displ per move        =     0.2000  Bohr
redata: Maximum number of CG moves       =     1000
redata: Force tolerance                  =     0.0004  Ry/Bohr
redata: ***********************************************************************
Total number of electrons:   348.000000
Total ionic charge:   348.000000

* ProcessorY, Blocksize:    2  24

k-point displ. along   1 input, could be:     0.00    0.50
k-point displ. along   2 input, could be:     0.00    0.50
 Kpoints in:            8 . Kpoints trimmed:            8

siesta: k-grid: Number of k-points =     8
siesta: k-grid: Cutoff (effective) =    12.500 Ang
siesta: k-grid: Supercell and displacements
siesta: k-grid:    6   0   0      0.000
siesta: k-grid:    0   2   0      0.000
siesta: k-grid:    0   0   1      0.000
Naive supercell factors:     6    2    2

superc: Internal auxiliary supercell:     6 x     2 x     2  =      24
superc: Number of atoms, orbitals, and projectors:   1728  22944  27648

siesta:                 ==============================
                            Begin CG move =      0

[...]

outcell: Unit cell vectors (Ang):
        4.947600    0.000000    0.000000
        0.000000   16.893500    0.000000
        0.000000    0.000000   25.000000

outcell: Cell vector modules (Ang)   :    4.947600   16.893500   25.000000
outcell: Cell angles (23,13,12) (deg):     90.0000     90.0000     90.0000
outcell: Cell volume (Ang**3)        :   2089.5570
New_DM. Step:     1
Initializing Density Matrix...

InitMesh: MESH =    54 x   180 x   270 =     2624400
InitMesh: Mesh cutoff (required, used) =   300.000   313.767 Ry

stepf: Fermi-Dirac step function

siesta: Program's energy decomposition (eV):
siesta: Ebs     =     -4624.405026
siesta: Eions   =     23488.662927
siesta: Ena     =      5278.784197
siesta: Ekin    =      7317.938443
siesta: Enl     =       392.574221
siesta: DEna    =        -0.000006
siesta: DUscf   =         0.000000
siesta: DUext   =         0.000000
siesta: Exc     =     -5577.042484
siesta: eta*DQ  =         0.000000
siesta: Emadel  =         0.000000
siesta: Emeta   =         0.000000
siesta: Emolmec =         0.000000
siesta: Ekinion =         0.000000
siesta: Eharris =    -15835.092626
siesta: Etot    =    -16076.408556
siesta: FreeEng =    -16076.408556

siesta: E_KS(eV) =           -15911.7906

siesta: E_KS - E_eggbox =    -15911.7906

siesta: Atomic forces (eV/Ang):
   Tot   -0.208013   -0.000000   -0.039939
   Max    0.494259
   Res    0.212744    sqrt( Sum f_i^2 / 3N )
   Max    0.494259    constrained

Stress-tensor-Voigt (kbar):      -21.72      -46.34      -23.23        0.00       -0.00       -1.63
(Free)E + p*V (eV/cell)   -15872.1175
Target enthalpy (eV/cell)   -15911.8020

cgvc: WARNING: CG file not found

[...]

outcell: Cell vector modules (Ang)   :    4.947600   16.893500   25.000000
outcell: Cell angles (23,13,12) (deg):     90.0000     90.0000     90.0000
outcell: Cell volume (Ang**3)        :   2089.5570
New_DM. Step:     2
Re-using DM from previous geometry...
Re-using DM without extrapolation (not allowed)
Density Matrix sparsity pattern changed.

siesta: iscf   Eharris(eV)      E_KS(eV)   FreeEng(eV)   dDmax  Ef(eV)
siesta:    1   -15911.9774   -15913.0026   -15913.0140  0.0287 -5.0228
siesta:    2   -15913.6573   -15911.5699   -15911.5837  0.0863 -5.0440
siesta:    3   -15911.9031   -15912.6333   -15912.6654  0.0144 -4.9059
siesta:    4   -15911.9095   -15912.4619   -15912.4758  0.0117 -4.8973
siesta:    5   -15911.9128   -15911.9860   -15911.9999  0.0095 -4.9442
siesta:    6   -15911.8986   -15911.8767   -15911.8908  0.0034 -4.9479
siesta:    7   -15911.8946   -15911.8462   -15911.8600  0.0019 -4.9438
siesta:    8   -15911.8935   -15911.8473   -15911.8614  0.0012 -4.9420
siesta:    9   -15911.8929   -15911.8577   -15911.8720  0.0006 -4.9395
siesta:   10   -15911.8927   -15911.8664   -15911.8805  0.0004 -4.9402
siesta:   11   -15911.8927   -15911.8743   -15911.8885  0.0003 -4.9396
siesta:   12   -15911.8927   -15911.8839   -15911.8981  0.0001 -4.9388
siesta:   13   -15911.8927   -15911.8880   -15911.9021  0.0001 -4.9393
siesta:   14   -15911.8927   -15911.8901   -15911.9042  0.0000 -4.9395

[...]

cgvc: Finished line minimization    1.  Mean atomic displacement =    0.0166

[...]

outcell: Cell vector modules (Ang)   :    4.947600   16.893500   25.000000
outcell: Cell angles (23,13,12) (deg):     90.0000     90.0000     90.0000
outcell: Cell volume (Ang**3)        :   2089.5570
New_DM. Step:    97
Re-using DM from previous geometry...
Re-using DM without extrapolation (not allowed)

[...]

outcell: Cell vector modules (Ang)   :    4.947600   16.893500   25.000000
outcell: Cell angles (23,13,12) (deg):     90.0000     90.0000     90.0000
outcell: Cell volume (Ang**3)        :   2089.5570
New_DM. Step:   157
Re-using DM from previous geometry...
Re-using DM without extrapolation (not allowed)

[...]

cgvc: Finished line minimization   72.  Mean atomic displacement =    0.0005

siesta:                 ==============================
                            Begin CG move =    178

superc: Internal auxiliary supercell:     6 x     2 x     2  =      24
superc: Number of atoms, orbitals, and projectors:   1728  22944  27648

outcell: Unit cell vectors (Ang):
        4.947600    0.000000    0.000000
        0.000000   16.893500    0.000000
        0.000000    0.000000   25.000000

outcell: Cell vector modules (Ang)   :    4.947600   16.893500   25.000000
outcell: Cell angles (23,13,12) (deg):     90.0000     90.0000     90.0000
outcell: Cell volume (Ang**3)        :   2089.5570
New_DM. Step:   179
Re-using DM from previous geometry...
Re-using DM without extrapolation (not allowed)
Density Matrix sparsity pattern changed.

siesta: iscf   Eharris(eV)      E_KS(eV)   FreeEng(eV)   dDmax  Ef(eV)
siesta:    1   -15912.8091   -15912.8066   -15912.8170  0.0003 -4.9752
siesta:    2   -15912.8096   -15912.8090   -15912.8194  0.0013 -4.9736
siesta:    3   -15912.8091   -15912.8070   -15912.8174  0.0001 -4.9750
siesta:    4   -15912.8091   -15912.8083   -15912.8187  0.0001 -4.9751

siesta: E_KS(eV) =           -15912.8087

siesta: Atomic forces (eV/Ang):
   Tot   -0.042022   -0.001339   -0.014765
   Max    0.009340
   Res    0.002446    sqrt( Sum f_i^2 / 3N )
   Max    0.009340    constrained

Stress-tensor-Voigt (kbar):      -23.78      -39.61       -0.21        0.00       -0.00       -0.01
(Free)E + p*V (eV/cell)   -15885.1685
Target enthalpy (eV/cell)   -15912.8191

outcoor: Relaxed atomic coordinates (fractional):
    0.32688862    0.05001778    0.09481983   1       1  Ti
    0.32676347    0.24999934    0.09478029   1       2  Ti
    0.32687830    0.44998133    0.09481885   1       3  Ti
    0.32715609    0.64997495    0.09493264   1       4  Ti
    0.32716925    0.85002124    0.09493348   1       5  Ti
    0.82689479    0.14999040   -0.01464730   1       6  Ti
    0.82689871    0.35000852   -0.01464995   1       7  Ti
    0.82709379    0.55001302   -0.01455950   1       8  Ti
    0.82724021    0.74999886   -0.01450172   1       9  Ti
    0.82710060    0.94998220   -0.01455744   1      10  Ti
    0.61585586    0.04995196    0.92389073   2      11  S
    0.61561427    0.25000273    0.92389664   2      12  S
    0.61581975    0.45004773    0.92389561   2      13  S
    0.61601937    0.65006164    0.92397856   2      14  S
    0.61600285    0.84994072    0.92398528   2      15  S
    0.53808524    0.15004102    0.15647305   2      16  S
    0.53808728    0.34996490    0.15647133   2      17  S
    0.53832701    0.54992046    0.15653218   2      18  S
    0.53919071    0.75000138    0.15640726   2      19  S
    0.53832667    0.95008049    0.15653485   2      20  S
    0.82681294    0.05002827    0.05806143   2      21  S
    0.82679655    0.25000138    0.05801845   2      22  S
    0.82681025    0.44997000    0.05805804   2      23  S
    0.82714759    0.64998112    0.05817034   2      24  S
    0.82716095    0.85001635    0.05817213   2      25  S
    0.32679355    0.14999054    0.02227576   2      26  S
    0.32679861    0.35000806    0.02227587   2      27  S
    0.32696534    0.55002831    0.02234877   2      28  S
    0.32701627    0.74999963    0.02242189   2      29  S
    0.32697536    0.94997095    0.02235007   2      30  S
    0.03822569    0.04994494    0.92389644   2      31  S
    0.03796723    0.24999462    0.92378614   2      32  S
    0.03819276    0.45004657    0.92388409   2      33  S
    0.03835407    0.65000819    0.92395680   2      34  S
    0.03833972    0.84998695    0.92395249   2      35  S
    0.11547556    0.15003702    0.15643880   2      36  S
    0.11547580    0.34995955    0.15643912   2      37  S
    0.11572313    0.54987867    0.15653170   2      38  S
    0.11669229    0.74999946    0.15678214   2      39  S
    0.11572474    0.95011742    0.15653197   2      40  S
    0.37036504    0.20822886    0.30907977   3      41  C
    0.37038822    0.45823907    0.30838333   3      42  C
    0.37050030    0.70823034    0.30686153   3      43  C
    0.37044494    0.95822121    0.30788506   3      44  C
    0.87037602    0.20823154    0.30903171   3      45  C
    0.87039238    0.45823444    0.30832395   3      46  C
    0.87048855    0.70822781    0.30679899   3      47  C
    0.87044935    0.95822978    0.30782667   3      48  C
    0.37038599    0.04175995    0.30838332   3      49  C
    0.37037153    0.29177183    0.30908003   3      50  C
    0.37044971    0.54177745    0.30788467   3      51  C
    0.37049709    0.79176868    0.30686164   3      52  C
    0.87039269    0.04176489    0.30832411   3      53  C
    0.87037391    0.29176794    0.30903153   3      54  C
    0.87044974    0.54176997    0.30782646   3      55  C
    0.87048739    0.79176996    0.30679938   3      56  C
    0.12037559    0.08323480    0.30860834   3      57  C
    0.12034844    0.33323284    0.30898083   3      58  C
    0.12047634    0.58323581    0.30757187   3      59  C
    0.12051181    0.83323456    0.30701204   3      60  C
    0.62039908    0.08323576    0.30859120   3      61  C
    0.62038106    0.33323271    0.30896442   3      62  C
    0.62046451    0.58323443    0.30755243   3      63  C
    0.62047563    0.83323564    0.30699054   3      64  C
    0.12034637    0.16676709    0.30898079   3      65  C
    0.12037600    0.41676543    0.30860843   3      66  C
    0.12051360    0.66676470    0.30701194   3      67  C
    0.12047107    0.91676248    0.30757233   3      68  C
    0.62037827    0.16676835    0.30896416   3      69  C
    0.62039774    0.41676420    0.30859120   3      70  C
    0.62047773    0.66676342    0.30699030   3      71  C
    0.62046248    0.91676448    0.30755274   3      72  C

coxmol: Writing XMOL coordinates into file TiS3.xyz

siesta: Program's energy decomposition (eV):
siesta: Ebs     =     -4240.951984
siesta: Eions   =     23488.662927
siesta: Ena     =      5284.145538
siesta: Ekin    =      7980.722293
siesta: Enl     =       -77.188809
siesta: DEna    =      -110.628764
siesta: DUscf   =        18.357128
siesta: DUext   =         0.000000
siesta: Exc     =     -5519.553201
siesta: eta*DQ  =         0.000000
siesta: Emadel  =         0.000000
siesta: Emeta   =         0.000000
siesta: Emolmec =         0.000000
siesta: Ekinion =         0.000000
siesta: Eharris =    -15912.809067
siesta: Etot    =    -15912.808742
siesta: FreeEng =    -15912.819094

siesta: Final energy (eV):
siesta:  Band Struct. =   -4240.951984
siesta:       Kinetic =    7980.722293
siesta:       Hartree =   67614.980767
siesta:    Ext. field =       0.000000
siesta:   Exch.-corr. =   -5519.553201
siesta:  Ion-electron = -142462.091963
siesta:       Ion-ion =   56473.133362
siesta:       Ekinion =       0.000000
siesta:         Total =  -15912.808742

siesta: Stress tensor (static) (eV/Ang**3):
siesta:    -0.014842    0.000001    0.000000
siesta:     0.000001   -0.024723   -0.000000
siesta:    -0.000004   -0.000000   -0.000133

siesta: Cell volume =       2089.557015 Ang**3

siesta: Pressure (static):
siesta:                Solid            Molecule  Units
siesta:           0.00014412          0.00014424  Ry/Bohr**3
siesta:           0.01323276          0.01324351  eV/Ang**3
siesta:          21.20145085         21.21867680  kBar
(Free)E+ p_basis*V_orbitals  =      -15866.956924
(Free)Eharris+ p_basis*V_orbitals  =      -15866.957680

siesta: Total spin polarization (Qup-Qdown) =   -0.000000

elaps:  Routine       Calls   Time/call    Tot.time        %
elaps:  siesta            1  129976.453  129976.453   100.00
elaps:  Setup             1       0.221       0.221     0.00
elaps:  bands             1       0.000       0.000     0.00
elaps:  writewave         1       0.001       0.001     0.00
elaps:  KSV_init          1       0.000       0.000     0.00
elaps:  IterMD          179     726.072  129966.875    99.99
elaps:  hsparse         179       0.270      48.345     0.04
elaps:  overlap         179       0.103      18.519     0.01
elaps:  IterSCF        1403      85.715  120257.878    92.52
elaps:  kinefsm         358       0.110      39.337     0.03
elaps:  nlefsm          358       2.924    1046.655     0.81
elaps:  DHSCF          1583      28.173   44597.661    34.31
elaps:  DHSCF1            1       0.208       0.208     0.00
elaps:  DHSCF2          179      16.014    2866.521     2.21
elaps:  REORD         14609       0.002      35.059     0.03
elaps:  POISON         1762       0.375     659.995     0.51
elaps:  DHSCF3         1583      23.736   37574.335    28.91
elaps:  rhoofd         1583      10.257   16237.290    12.49
elaps:  cellXC         1583       1.344    2127.434     1.64
elaps:  vmat           1582      10.728   16972.154    13.06
elaps:  MolMec          358       0.000       0.004     0.00
elaps:  diagon         1403      59.186   83037.620    63.89
elaps:  c-eigval      22448       1.582   35517.736    27.33
elaps:  c-buildHS     22448       0.014     304.803     0.23
elaps:  cdiag         44896       1.589   71327.524    54.88
elaps:  cdiag1        44896       0.088    3930.065     3.02
elaps:  cdiag2        44896       0.323   14485.477    11.14
elaps:  cdiag3        44896       1.126   50544.398    38.89
elaps:  cdiag4        44896       0.032    1423.368     1.10
elaps:  c-eigvec      22448       1.622   36405.288    28.01
elaps:  c-buildD      22448       0.494   11088.699     8.53
elaps:  DHSCF4          179      23.108    4136.277     3.18
elaps:  dfscf           179      21.484    3845.596     2.96
elaps:  overfsm         179       0.095      17.032     0.01
elaps:  optical           1       0.000       0.000     0.00

>> End of run:  13-NOV-2019   4:11:18