>> Start of run:  13-NOV-2019  14:03:58

reinit: Reading from standard input
************************** Dump of input data file ****************************
SystemName TiS3
SystemLabel TiS3
NumberOfAtoms 72
SpinPolarized .true.
NumberOfSpecies 3
%block ChemicalSpeciesLabel
1  22 Ti
2  16 S
3  6 C
%endblock ChemicalSpeciesLabel
XC.functional		GGA
XC.authors		PBE
PAO.BasisSize		DZP
PAO.EnergyShift		65 meV
LatticeConstant 1.0 Ang
%block LatticeParameters
4.94760 16.89350 25.00000 90.00000 90.00000 90.00000
%endblock LatticeParameters
AtomicCoordinatesFormat  Fractional
%block AtomicCoordinatesAndAtomicSpecies
0.326889	0.050018	0.09482	1
0.326763	0.249999	0.09478	1
0.326878	0.449981	0.094819	1
0.327156	0.649975	0.094933	1
0.327169	0.850021	0.094933	1
0.826895	0.14999	-0.014647	1
0.826899	0.350009	-0.01465	1
0.827094	0.550013	-0.01456	1
0.82724	0.749999	-0.014502	1
0.827101	0.949982	-0.014557	1
0.615856	0.049952	0.923891	2
0.615614	0.250003	0.923897	2
0.61582	0.450048	0.923896	2
0.616019	0.650062	0.923979	2
0.616003	0.849941	0.923985	2
0.538085	0.150041	0.156473	2
0.538087	0.349965	0.156471	2
0.538327	0.54992	0.156532	2
0.539191	0.750001	0.156407	2
0.538327	0.950081	0.156535	2
0.826813	0.050028	0.058061	2
0.826797	0.250001	0.058018	2
0.82681	0.44997	0.058058	2
0.827148	0.649981	0.05817	2
0.827161	0.850016	0.058172	2
0.326794	0.149991	0.022276	2
0.326799	0.350008	0.022276	2
0.326965	0.550028	0.022349	2
0.327016	0.75	0.022422	2
0.326975	0.949971	0.02235	2
0.038226	0.049945	0.923896	2
0.037967	0.249995	0.923786	2
0.038193	0.450047	0.923884	2
0.038354	0.650008	0.923957	2
0.03834	0.849987	0.923953	2
0.115476	0.150037	0.156439	2
0.115476	0.34996	0.156439	2
0.115723	0.549879	0.156532	2
0.116692	0.749999	0.156782	2
0.115725	0.950117	0.156532	2
0.370365	0.208229	0.30908	3
0.370388	0.458239	0.308383	3
0.3705	0.70823	0.306862	3
0.370445	0.958221	0.307885	3
0.870376	0.208232	0.309032	3
0.870392	0.458234	0.308324	3
0.870489	0.708228	0.306799	3
0.870449	0.95823	0.307827	3
0.370386	0.04176	0.308383	3
0.370372	0.291772	0.30908	3
0.37045	0.541777	0.307885	3
0.370497	0.791769	0.306862	3
0.870393	0.041765	0.308324	3
0.870374	0.291768	0.309032	3
0.87045	0.54177	0.307826	3
0.870487	0.79177	0.306799	3
0.120376	0.083235	0.308608	3
0.120348	0.333233	0.308981	3
0.120476	0.583236	0.307572	3
0.120512	0.833235	0.307012	3
0.620399	0.083236	0.308591	3
0.620381	0.333233	0.308964	3
0.620465	0.583234	0.307552	3
0.620476	0.833236	0.306991	3
0.120346	0.166767	0.308981	3
0.120376	0.416765	0.308608	3
0.120514	0.666765	0.307012	3
0.120471	0.916762	0.307572	3
0.620378	0.166768	0.308964	3
0.620398	0.416764	0.308591	3
0.620478	0.666763	0.30699	3
0.620462	0.916764	0.307553	3
%endblock AtomicCoordinatesAndAtomicSpecies
DM.MixingWeight		0.05
DM.NumberPulay		8
DM.Tolerance		1.d-4
MaxSCFIterations		300
MD.TypeOfRun		CG
MD.VariableCell		.true.
MD.MaxForceTol		0.01 eV/Ang
MD.NumCGsteps		1000
#MD.MaxCGDispl		0.15 Ang
%block GeometryConstraints
 stress 3 4 5
 position  1 0.0  0.0  1.0
%endblock GeometryConstraints
MeshCutoff		300.0 Ry
WriteCoorXmol		yes
%block kgrid_Monkhorst_Pack
   6   0   0  0.0
   0   2   0  0.0
   0   0   1  0.0
%endblock Kgrid_Monkhorst_Pack
UseSaveData           .true.
SaveRho                 .true.       # Write valence pseudocharge at the mesh
************************** End of input data file *****************************

reinit: -----------------------------------------------------------------------
reinit: System Name: TiS3
reinit: -----------------------------------------------------------------------
reinit: System Label: TiS3
reinit: -----------------------------------------------------------------------

initatom: Reading input for the pseudopotentials and atomic orbitals ----------
 Species number:            1  Label: Ti Atomic number:          22
 Species number:            2  Label: S Atomic number:          16
 Species number:            3  Label: C Atomic number:           6
Ground state valence configuration:   4s02  3d02
Reading pseudopotential information in formatted form from Ti.psf

Valence configuration for pseudopotential generation:
4s( 2.00) rc: 2.71
4p( 0.00) rc: 2.71
3d( 2.00) rc: 2.45
4f( 0.00) rc: 2.45
Ground state valence configuration:   3s02  3p04
Reading pseudopotential information in formatted form from S.psf

Valence configuration for pseudopotential generation:
3s( 2.00) rc: 1.61
3p( 4.00) rc: 1.76
3d( 0.00) rc: 1.92
4f( 0.00) rc: 1.92
Ground state valence configuration:   2s02  2p02
Reading pseudopotential information in formatted form from C.psf

Valence configuration for pseudopotential generation:
2s( 2.00) rc: 1.54
2p( 2.00) rc: 1.54
3d( 0.00) rc: 1.54
4f( 0.00) rc: 1.54
For Ti, standard SIESTA heuristics set lmxkb to 3
 (one more than the basis l, including polarization orbitals).
Use PS.lmax or PS.KBprojectors blocks to override.
For S, standard SIESTA heuristics set lmxkb to 3
 (one more than the basis l, including polarization orbitals).
Use PS.lmax or PS.KBprojectors blocks to override.
For C, standard SIESTA heuristics set lmxkb to 3
 (one more than the basis l, including polarization orbitals).
Use PS.lmax or PS.KBprojectors blocks to override.

<basis_specs>
Ti                   Z=  22    Mass=  47.880        Charge= 0.17977+309
Lmxo=2 Lmxkb= 3    BasisType=split      Semic=F
L=0  Nsemic=0  Cnfigmx=4
          n=1  nzeta=2  polorb=1
            splnorm:   0.15000
               vcte:    0.0000
               rinn:    0.0000
                rcs:    0.0000      0.0000
            lambdas:    1.0000      1.0000
L=1  Nsemic=0  Cnfigmx=4
L=2  Nsemic=0  Cnfigmx=3
          n=1  nzeta=2  polorb=0
            splnorm:   0.15000
               vcte:    0.0000
               rinn:    0.0000
                rcs:    0.0000      0.0000
            lambdas:    1.0000      1.0000
L=0  Nkbl=1  erefs: 0.17977+309
L=1  Nkbl=1  erefs: 0.17977+309
L=2  Nkbl=1  erefs: 0.17977+309
L=3  Nkbl=1  erefs: 0.17977+309
</basis_specs>

atom: Called for Ti                    (Z =  22)

read_vps: Pseudopotential generation method:
read_vps: ATM3      Troullier-Martins
Total valence charge:    4.00000

read_vps: Pseudopotential includes a core correction:
read_vps: Pseudo-core for xc-correction

xc_check: Exchange-correlation functional:
xc_check: GGA Perdew, Burke & Ernzerhof 1996
V l=0 = -2*Zval/r beyond r=  3.2266
V l=1 = -2*Zval/r beyond r=  3.2266
V l=2 = -2*Zval/r beyond r=  3.2266
V l=3 = -2*Zval/r beyond r=  3.2266
All V_l potentials equal beyond r=  2.6749
This should be close to max(r_c) in ps generation
All pots = -2*Zval/r beyond r=  3.2266

VLOCAL1: 99.0% of the norm of Vloc inside      6.067 Ry
VLOCAL1: 99.9% of the norm of Vloc inside     13.826 Ry
atom: Maximum radius for 4*pi*r*r*local-pseudopot. charge    3.18650
atom: Maximum radius for r*vlocal+2*Zval:    2.77713
GHOST: No ghost state for L =  0
GHOST: No ghost state for L =  1
GHOST: No ghost state for L =  2
GHOST: No ghost state for L =  3

KBgen: Kleinman-Bylander projectors:
   l= 0   rc=  3.656209   el= -0.325100   Ekb=  2.704161   kbcos=  0.283955
   l= 1   rc=  3.748769   el= -0.108822   Ekb=  1.406241   kbcos=  0.273406
   l= 2   rc=  3.267166   el= -0.324546   Ekb= -7.701284   kbcos= -0.636873
   l= 3   rc=  3.990551   el=  0.003060   Ekb= -1.295170   kbcos= -0.013833

KBgen: Total number of  Kleinman-Bylander projectors:   16
atom: -------------------------------------------------------------------------

atom: SANKEY-TYPE ORBITALS:
atom: Selected multiple-zeta basis: split

SPLIT: Orbitals with angular momentum L= 0

SPLIT: Basis orbitals for state 4s

SPLIT: PAO cut-off radius determined from an
SPLIT: energy shift=  0.004777 Ry

   izeta = 1
                 lambda =    1.000000
                     rc =    8.448122
                 energy =   -0.320243
                kinetic =    0.225933
    potential(screened) =   -0.546176
       potential(ionic) =   -2.398113

   izeta = 2
                 rmatch =    7.181023
              splitnorm =    0.150000
                 energy =   -0.277986
                kinetic =    0.361117
    potential(screened) =   -0.639103
       potential(ionic) =   -2.603312

[...]

SPLIT: Basis orbitals for state 3d

[...]

POLgen: Perturbative polarization orbital with L=  1

POLgen: Polarization orbital for state 4s

   izeta = 1
                     rc =    8.448122
                 energy =   -0.098258
                kinetic =    0.420436
    potential(screened) =   -0.518694
       potential(ionic) =   -2.271734
atom: Total number of Sankey-type orbitals: 15

atm_pop: Valence configuration (for local Pseudopot. screening):
 4s( 2.00)
 4p( 0.00)
 3d( 2.00)
Vna: chval, zval:    4.00000   4.00000

Vna:  Cut-off radius for the neutral-atom potential:   8.448122
comcore: Pseudo-core radius Rcore=  4.578782

atom: _________________________________________________________________________

[...]

SPLIT: Basis orbitals for state 3p

[...]

POLgen: Polarization orbital for state 3p

[...]

atm_pop: Valence configuration (for local Pseudopot. screening):
 3s( 2.00)
 3p( 4.00)
Vna: chval, zval:    6.00000   6.00000

[...]

<basis_specs>
C                    Z=   6    Mass=  12.010        Charge= 0.17977+309
Lmxo=1 Lmxkb= 3    BasisType=split      Semic=F
L=0  Nsemic=0  Cnfigmx=2
          n=1  nzeta=2  polorb=0
            splnorm:   0.15000
               vcte:    0.0000
               rinn:    0.0000
                rcs:    0.0000      0.0000
            lambdas:    1.0000      1.0000
L=1  Nsemic=0  Cnfigmx=2
          n=1  nzeta=2  polorb=1
            splnorm:   0.15000
               vcte:    0.0000
               rinn:    0.0000
                rcs:    0.0000      0.0000
            lambdas:    1.0000      1.0000
L=0  Nkbl=1  erefs: 0.17977+309
L=1  Nkbl=1  erefs: 0.17977+309
L=2  Nkbl=1  erefs: 0.17977+309
L=3  Nkbl=1  erefs: 0.17977+309
</basis_specs>

atom: Called for C                     (Z =   6)

read_vps: Pseudopotential generation method:
read_vps: ATM3      Troullier-Martins
Total valence charge:    4.00000

read_vps: Pseudopotential includes a core correction:
read_vps: Pseudo-core for xc-correction

xc_check: Exchange-correlation functional:
xc_check: GGA Perdew, Burke & Ernzerhof 1996
V l=0 = -2*Zval/r beyond r=  1.5227
V l=1 = -2*Zval/r beyond r=  1.5227
V l=2 = -2*Zval/r beyond r=  1.5227
V l=3 = -2*Zval/r beyond r=  1.5038
All V_l potentials equal beyond r=  1.5227
This should be close to max(r_c) in ps generation
All pots = -2*Zval/r beyond r=  1.5227

VLOCAL1: 99.0% of the norm of Vloc inside     18.722 Ry
VLOCAL1: 99.9% of the norm of Vloc inside     42.668 Ry
atom: Maximum radius for 4*pi*r*r*local-pseudopot. charge    1.83678
atom: Maximum radius for r*vlocal+2*Zval:    1.58088
GHOST: No ghost state for L =  0
GHOST: No ghost state for L =  1
GHOST: No ghost state for L =  2
GHOST: No ghost state for L =  3

KBgen: Kleinman-Bylander projectors:
   l= 0   rc=  1.704034   el= -1.009801   Ekb=  5.335044   kbcos=  0.316824
   l= 1   rc=  1.704034   el= -0.388707   Ekb= -3.785862   kbcos= -0.366464
   l= 2   rc=  1.791422   el=  0.001971   Ekb= -0.970471   kbcos= -0.009212
   l= 3   rc=  1.859892   el=  0.003065   Ekb= -0.399525   kbcos= -0.001223

[...]
siesta:   34   -15913.3412   -15913.4198   -15913.4332  0.0018 -4.9742
siesta:   35   -15913.3416   -15913.5564   -15913.5703  0.0016 -4.9762
siesta:   36   -15913.3414   -15913.5558   -15913.5697  0.0018 -4.9746
siesta:   37   -15913.3413   -15913.4961   -15913.5100  0.0015 -4.9739
siesta:   38   -15913.3410   -15913.2770   -15913.2908  0.0017 -4.9687
siesta:   39   -15913.3407   -15913.2079   -15913.2217  0.0011 -4.9633
siesta:   40   -15913.3406   -15913.1596   -15913.1733  0.0008 -4.9638
siesta:   41   -15913.3405   -15913.1509   -15913.1647  0.0004 -4.9666
siesta:   42   -15913.3405   -15913.1162   -15913.1300  0.0005 -4.9663
siesta:   43   -15913.3405   -15913.2500   -15913.2637  0.0003 -4.9653
siesta:   44   -15913.3405   -15913.2628   -15913.2765  0.0003 -4.9652
siesta:   45   -15913.3405   -15913.3097   -15913.3234  0.0002 -4.9644
siesta:   46   -15913.3405   -15913.3189   -15913.3327  0.0002 -4.9643
siesta:   47   -15913.3405   -15913.3373   -15913.3510  0.0002 -4.9643
siesta:   48   -15913.3405   -15913.3363   -15913.3501  0.0001 -4.9644
siesta:   49   -15913.3405   -15913.3457   -15913.3594  0.0000 -4.9644

[...]

cgvc: Finished line minimization    1.  Mean atomic displacement =    0.0211

[...]

outcell: Cell vector modules (Ang)   :    4.996888   17.211242   25.000000
outcell: Cell angles (23,13,12) (deg):     90.0000     90.0000     89.9989
outcell: Cell volume (Ang**3)        :   2150.0664
New_DM. Step:    34
Re-using DM from previous geometry...
Re-using DM without extrapolation (not allowed)

[...]

cgvc: Finished line minimization   13.  Mean atomic displacement =    0.0008

[...]

siesta:                 ==============================
                            Begin CG move =     35
k-point displ. along   1 input, could be:     0.00    0.50
k-point displ. along   2 input, could be:     0.00    0.50
 Kpoints in:            8 . Kpoints trimmed:            8

siesta: k-grid: Number of k-points =     8
siesta: k-grid: Cutoff (effective) =    12.500 Ang
siesta: k-grid: Supercell and displacements
siesta: k-grid:    6   0   0      0.000
siesta: k-grid:    0   2   0      0.000
siesta: k-grid:    0   0   1      0.000
Naive supercell factors:     6    2    2

superc: Internal auxiliary supercell:     6 x     2 x     2  =      24
superc: Number of atoms, orbitals, and projectors:   1728  22944  27648

[...]

outcell: Cell vector modules (Ang)   :    4.996785   17.210679   25.000000
outcell: Cell angles (23,13,12) (deg):     90.0000     90.0000     90.0000
outcell: Cell volume (Ang**3)        :   2149.9517
New_DM. Step:    36
Re-using DM from previous geometry...
Re-using DM without extrapolation (not allowed)
Density Matrix sparsity pattern changed.

InitMesh: MESH =    54 x   180 x   270 =     2624400
InitMesh: Mesh cutoff (required, used) =   300.000   302.309 Ry

siesta: iscf   Eharris(eV)      E_KS(eV)   FreeEng(eV)   dDmax  Ef(eV)
siesta:    1   -15913.4201   -15913.3871   -15913.4002  0.0004 -4.9514
siesta:    2   -15913.4262   -15913.4196   -15913.4324  0.0033 -4.9365
siesta:    3   -15913.4200   -15913.3917   -15913.4039  0.0003 -4.9499
siesta:    4   -15913.4200   -15913.3973   -15913.4100  0.0002 -4.9496
siesta:    5   -15913.4200   -15913.4131   -15913.4258  0.0002 -4.9491
siesta:    6   -15913.4200   -15913.4192   -15913.4320  0.0001 -4.9497
siesta:    7   -15913.4200   -15913.4198   -15913.4326  0.0000 -4.9498

siesta: E_KS(eV) =           -15913.4199

siesta: Atomic forces (eV/Ang):
   Tot    0.056752    0.001837   -0.021086
   Max    0.061177
   Res    0.004971    sqrt( Sum f_i^2 / 3N )
   Max    0.007403    constrained

Stress-tensor-Voigt (kbar):       -0.01       -0.04        0.13       -0.00       -0.00        0.03
(Free)E + p*V (eV/cell)   -15913.4694
Target enthalpy (eV/cell)   -15913.4327

siesta: Stress tensor (static) (eV/Ang**3):
        -0.000006   -0.000002    0.000020
        -0.000002   -0.000025   -0.000003
         0.000020   -0.000003    0.000082

siesta: Pressure (static):         -0.02736887  kBar

siesta: Stress tensor (total) (eV/Ang**3):
        -0.000006   -0.000002    0.000020
        -0.000002   -0.000025   -0.000003
         0.000020   -0.000003    0.000082

siesta: Pressure (total):         -0.02736887  kBar

outcoor: Relaxed atomic coordinates (fractional):
    0.32732589    0.05003802    0.09482000   1       1  Ti
    0.32718906    0.24999059    0.09428753   1       2  Ti
    0.32727656    0.44996458    0.09436942   1       3  Ti
    0.32750206    0.64997502    0.09447629   1       4  Ti
    0.32751265    0.85003263    0.09445762   1       5  Ti
    0.82697543    0.14995327   -0.01409998   1       6  Ti
    0.82697439    0.35000217   -0.01415946   1       7  Ti
    0.82716154    0.55001136   -0.01407204   1       8  Ti
    0.82721143    0.75000387   -0.01403077   1       9  Ti
    0.82718005    0.95001925   -0.01402290   1      10  Ti
    0.61840021    0.04994807    0.92483173   2      11  S
    0.61820211    0.24998025    0.92481375   2      12  S
    0.61838208    0.45005640    0.92480374   2      13  S
    0.61848304    0.65003339    0.92487613   2      14  S
    0.61847672    0.84999399    0.92490088   2      15  S
    0.53626161    0.15019344    0.15565123   2      16  S
    0.53620489    0.34995363    0.15550519   2      17  S
    0.53648745    0.54988850    0.15557666   2      18  S
    0.53743344    0.75000023    0.15544399   2      19  S
    0.53655400    0.94999669    0.15572184   2      20  S
    0.82709871    0.05002809    0.05794362   2      21  S
    0.82696423    0.24999725    0.05776558   2      22  S
    0.82706052    0.44996767    0.05781132   2      23  S
    0.82733241    0.64997885    0.05789529   2      24  S
    0.82733987    0.85002358    0.05790147   2      25  S
    0.32707073    0.14983940    0.02265997   2      26  S
    0.32702177    0.35001725    0.02252257   2      27  S
    0.32726442    0.55002990    0.02262756   2      28  S
    0.32727923    0.74999997    0.02268913   2      29  S
    0.32729205    0.95010611    0.02275284   2      30  S
    0.03637135    0.04993789    0.92491894   2      31  S
    0.03615865    0.24996512    0.92482523   2      32  S
    0.03634009    0.45004923    0.92487553   2      33  S
    0.03646031    0.65003729    0.92494489   2      34  S
    0.03645076    0.84998250    0.92496633   2      35  S
    0.11791086    0.15018877    0.15558504   2      36  S
    0.11797410    0.34992699    0.15545318   2      37  S
    0.11825303    0.54987457    0.15556796   2      38  S
    0.11922332    0.74999774    0.15581253   2      39  S
    0.11820669    0.94999529    0.15569511   2      40  S
    0.37042283    0.20831592    0.30902464   3      41  C
    0.37043009    0.45832571    0.30833639   3      42  C
    0.37042349    0.70831740    0.30698661   3      43  C
    0.37042298    0.95831194    0.30785658   3      44  C
    0.87042162    0.20831763    0.30898613   3      45  C
    0.87042570    0.45832466    0.30828645   3      46  C
    0.87042058    0.70831844    0.30693191   3      47  C
    0.87042145    0.95831454    0.30780924   3      48  C
    0.37042661    0.04167322    0.30833748   3      49  C
    0.37042385    0.29168333    0.30902413   3      50  C
    0.37042541    0.54168714    0.30785506   3      51  C
    0.37042279    0.79168136    0.30698690   3      52  C
    0.87042391    0.04167446    0.30828743   3      53  C
    0.87042215    0.29168217    0.30898551   3      54  C
    0.87042267    0.54168456    0.30780787   3      55  C
    0.87041977    0.79168046    0.30693205   3      56  C
    0.12042415    0.08331260    0.30856219   3      57  C
    0.12042119    0.33332110    0.30892756   3      58  C
    0.12042519    0.58331876    0.30757554   3      59  C
    0.12042430    0.83331533    0.30710606   3      60  C
    0.62042946    0.08331290    0.30854973   3      61  C
    0.62043336    0.33332049    0.30891459   3      62  C
    0.62043020    0.58331833    0.30756243   3      63  C
    0.62042297    0.83331581    0.30708996   3      64  C
    0.12042085    0.16667921    0.30892848   3      65  C
    0.12042614    0.41668663    0.30856116   3      66  C
    0.12042566    0.66668398    0.30710544   3      67  C
    0.12042372    0.91667980    0.30757702   3      68  C
    0.62043234    0.16667914    0.30891561   3      69  C
    0.62043264    0.41668610    0.30854883   3      70  C
    0.62042326    0.66668352    0.30708941   3      71  C
    0.62042934    0.91668056    0.30756379   3      72  C

outcell: Unit cell vectors (Ang):
        4.996785   -0.000001    0.000000
       -0.000003   17.210679    0.000000
        0.000000    0.000000   25.000000

outcell: Cell vector modules (Ang)   :    4.996785   17.210679   25.000000
outcell: Cell angles (23,13,12) (deg):     90.0000     90.0000     90.0000
outcell: Cell volume (Ang**3)        :   2149.9517

coxmol: Writing XMOL coordinates into file TiS3.xyz

siesta: Program's energy decomposition (eV):
siesta: Ebs     =     -4220.265374
siesta: Eions   =     23488.662927
siesta: Ena     =      5297.256354
siesta: Ekin    =      7921.455293
siesta: Enl     =       -67.565730
siesta: DEna    =       -91.676694
siesta: DUscf   =        17.041482
siesta: DUext   =         0.000000
siesta: Exc     =     -5501.267710
siesta: eta*DQ  =         0.000000
siesta: Emadel  =         0.000000
siesta: Emeta   =         0.000000
siesta: Emolmec =         0.000000
siesta: Ekinion =         0.000000
siesta: Eharris =    -15913.420023
siesta: Etot    =    -15913.419932
siesta: FreeEng =    -15913.432702

siesta: Final energy (eV):
siesta:  Band Struct. =   -4220.265374
siesta:       Kinetic =    7921.455293
siesta:       Hartree =   66029.409253
siesta:    Ext. field =       0.000000
siesta:   Exch.-corr. =   -5501.267710
siesta:  Ion-electron = -139234.706234
siesta:       Ion-ion =   54871.689466
siesta:       Ekinion =       0.000000
siesta:         Total =  -15913.419932

siesta: Atomic forces (eV/Ang):
siesta:      1    0.001885   -0.000490   -0.061177
siesta:      2    0.000629    0.000473    0.005245
siesta:      3    0.002230   -0.002150    0.005897
siesta:      4    0.002437   -0.001001    0.004798
siesta:      5    0.002756    0.002232    0.006470
siesta:      6    0.002543    0.000361   -0.003748
siesta:      7    0.000605   -0.000287   -0.003511
siesta:      8    0.001234    0.000965   -0.007403
siesta:      9    0.001288    0.000835   -0.006415
siesta:     10    0.000975   -0.000110   -0.005494
siesta:     11   -0.000417    0.000599    0.004423
siesta:     12    0.000937   -0.001520    0.003127
siesta:     13   -0.000142   -0.001002    0.001607
siesta:     14    0.000049    0.000020   -0.000439
siesta:     15    0.000108    0.001765    0.001675
siesta:     16    0.001925    0.003071    0.005735
siesta:     17    0.001676    0.001932   -0.000302
siesta:     18    0.000423    0.000905   -0.000906
siesta:     19    0.001887   -0.001095   -0.001447
siesta:     20    0.000654   -0.002612    0.005409
siesta:     21    0.000871   -0.000390    0.004842
siesta:     22    0.000820    0.000429    0.002888
siesta:     23    0.001268    0.000053   -0.000243
siesta:     24    0.000597   -0.000004   -0.001971
siesta:     25    0.001263   -0.000443    0.000499
siesta:     26    0.002802   -0.001194    0.005897
siesta:     27    0.001525   -0.000625    0.000683
siesta:     28    0.001817   -0.000320    0.000115
siesta:     29    0.002431    0.000687    0.000862
siesta:     30    0.002834    0.002037    0.005382
siesta:     31    0.003183   -0.000414    0.006065
siesta:     32    0.004241   -0.002254    0.005617
siesta:     33    0.003078    0.000161    0.001861
siesta:     34    0.002806   -0.000012    0.003147
siesta:     35    0.003181    0.001965    0.005505
siesta:     36    0.002243    0.002116    0.002087
siesta:     37    0.001266    0.000976   -0.001799
siesta:     38   -0.000844   -0.000999   -0.001850
siesta:     39    0.001200   -0.001185   -0.003038
siesta:     40    0.000942   -0.001772    0.001570
siesta:     41   -0.000291    0.005459   -0.002655
siesta:     42   -0.000869    0.004945   -0.001713
siesta:     43   -0.000817    0.004382    0.002696
siesta:     44    0.000187    0.003327    0.000076
siesta:     45   -0.000423    0.004786   -0.002550
siesta:     46   -0.000554    0.005547   -0.001751
siesta:     47   -0.000850    0.005224    0.002700
siesta:     48    0.000137    0.003151   -0.000057
siesta:     49   -0.000602   -0.004800   -0.001602
siesta:     50   -0.000512   -0.005019   -0.002741
siesta:     51    0.000092   -0.003603   -0.000099
siesta:     52   -0.000673   -0.004041    0.002749
siesta:     53   -0.000607   -0.005479   -0.001594
siesta:     54   -0.000356   -0.004797   -0.002607
siesta:     55    0.000172   -0.003383   -0.000171
siesta:     56   -0.000853   -0.005260    0.002756
siesta:     57    0.000686    0.005165   -0.002128
siesta:     58   -0.000516    0.003916   -0.002550
siesta:     59   -0.000119    0.003320    0.000548
siesta:     60    0.000535    0.003524    0.002477
siesta:     61    0.000293    0.005159   -0.002143
siesta:     62   -0.000446    0.004783   -0.002526
siesta:     63   -0.000034    0.002857    0.000611
siesta:     64    0.000996    0.003463    0.002507
siesta:     65   -0.000893   -0.004751   -0.002343
siesta:     66    0.000769   -0.004553   -0.002240
siesta:     67    0.000401   -0.004169    0.002408
siesta:     68   -0.000095   -0.002687    0.000683
siesta:     69   -0.000319   -0.005246   -0.002404
siesta:     70    0.000026   -0.004766   -0.002330
siesta:     71    0.001230   -0.003911    0.002418
siesta:     72   -0.000148   -0.002406    0.000831
siesta: ----------------------------------------
siesta:    Tot    0.056752    0.001837   -0.021086

siesta: Stress tensor (static) (eV/Ang**3):
siesta:    -0.000006   -0.000002    0.000020
siesta:    -0.000002   -0.000025   -0.000003
siesta:     0.000020   -0.000003    0.000082

siesta: Constrained stress tensor (static) (eV/Ang**3):
siesta:    -0.000006   -0.000002    0.000000
siesta:    -0.000002   -0.000025    0.000000
siesta:     0.000000    0.000000    0.000000

siesta: Cell volume =       2149.951704 Ang**3

siesta: Pressure (static):
siesta:                Solid            Molecule  Units
siesta:          -0.00000019         -0.00000149  Ry/Bohr**3
siesta:          -0.00001708         -0.00013706  eV/Ang**3
siesta:          -0.02736887         -0.21959688  kBar
(Free)E+ p_basis*V_orbitals  =      -15867.570531
(Free)Eharris+ p_basis*V_orbitals  =      -15867.570753

siesta: Total spin polarization (Qup-Qdown) =   -0.000000

elaps:  Routine       Calls   Time/call    Tot.time        %
elaps:  siesta            1   38787.296   38787.296   100.00
elaps:  Setup             1       0.217       0.217     0.00
elaps:  bands             1       0.000       0.000     0.00
elaps:  writewave         1       0.001       0.001     0.00
elaps:  KSV_init          1       0.000       0.000     0.00
elaps:  IterMD           36    1077.007   38772.270    99.96
elaps:  hsparse          36       0.255       9.172     0.02
elaps:  overlap          36       0.122       4.403     0.01
elaps:  IterSCF         438      84.162   36863.078    95.04
elaps:  kinefsm          72       0.117       8.424     0.02
elaps:  nlefsm           72       2.775     199.781     0.52
elaps:  DHSCF           475      24.676   11721.286    30.22
elaps:  DHSCF1           36       0.259       9.310     0.02
elaps:  DHSCF2           36      15.937     573.736     1.48
elaps:  REORD          4351       0.002      10.299     0.03
elaps:  POISON          511       0.360     183.875     0.47
elaps:  DHSCF3          475      21.759   10335.473    26.65
elaps:  rhoofd          475       9.241    4389.534    11.32
elaps:  cellXC          475       1.378     654.510     1.69
elaps:  vmat            474       9.627    4563.211    11.76
elaps:  MolMec           72       0.000       0.001     0.00
elaps:  diagon          438      60.611   26547.604    68.44
elaps:  c-eigval       7008       1.598   11197.349    28.87
elaps:  c-buildHS      7008       0.013      93.224     0.24
elaps:  cdiag         14016       1.607   22525.953    58.08
elaps:  cdiag1        14016       0.089    1249.308     3.22
elaps:  cdiag2        14016       0.329    4605.118    11.87
elaps:  cdiag3        14016       1.135   15910.129    41.02
elaps:  cdiag4        14016       0.032     454.754     1.17
elaps:  c-eigvec       7008       1.643   11512.229    29.68
elaps:  c-buildD       7008       0.547    3830.417     9.88
elaps:  DHSCF4           36      22.142     797.114     2.06
elaps:  dfscf            36      20.536     739.295     1.91
elaps:  overfsm          36       0.094       3.376     0.01
elaps:  optical           1       0.000       0.000     0.00

>> End of run:  14-NOV-2019   0:50:25