     Program PWSCF v.5.0.2 (svn rev. 9656) starts on 10Nov2019 at 16: 9:44

     Current dimensions of program PWSCF are:
     Max number of different atomic species (ntypx) = 10
     Max number of k-points (npk) =  40000
     Max angular momentum in pseudopotentials (lmaxx) =  3
     Waiting for input...
     Reading input from standard input
Warning: card   &CELL ignored
Warning: card  / ignored

     IMPORTANT: XC functional enforced from input :
     Exchange-correlation      = VDW-DF ( 1 4 4 0 1)
     EXX-fraction              =        0.00
     Any further DFT definition will be discarded
     Please, verify this is what you really want

     Subspace diagonalization in iterative solution of the eigenvalue problem:
     a serial algorithm will be used

     bravais-lattice index     =            0
     lattice parameter (alat)  =       1.8897  a.u.
     unit-cell volume          =   14101.0269 (a.u.)^3
     number of atoms/cell      =           72
     number of atomic types    =            3
     number of electrons       =       428.00
     number of Kohn-Sham states=          257
     kinetic-energy cutoff     =      39.0000  Ry
     charge density cutoff     =     300.0000  Ry
     convergence threshold     =      1.0E-06
     mixing beta               =       0.3000
     number of iterations used =            8  plain     mixing
     Exchange-correlation      = VDW-DF ( 1 4 4 0 1)
     EXX-fraction              =        0.00
     nstep                     =           99

     celldm(1)=   1.889726  celldm(2)=   0.000000  celldm(3)=   0.000000
     celldm(4)=   0.000000  celldm(5)=   0.000000  celldm(6)=   0.000000

     crystal axes: (cart. coord. in units of alat)
               a(1) = (   4.947600   0.000000   0.000000 )
               a(2) = (   0.000000  16.893500   0.000000 )
               a(3) = (   0.000000   0.000000  25.000000 )

     reciprocal axes: (cart. coord. in units 2 pi/alat)
               b(1) = (  0.202118  0.000000  0.000000 )
               b(2) = (  0.000000  0.059194  0.000000 )
               b(3) = (  0.000000  0.000000  0.040000 )

     PseudoPot. # 1 for Ti read from file:
     /home/mxm2/Documents/internal_and_full_opt/Lipatov_monolayer_25_1x5x1_graphene_2x4x1_heterostructure_internal_opt/Ti.pbe-spn-rrkjus_psl.0.3.1.UPF
     MD5 check sum: 3a8d0781337a465ed61b0a8b42a1557b
     Pseudo is Ultrasoft + core correction, Zval = 12.0
     Generated using "atomic" code by A. Dal Corso  v.5.0.2 svn rev. 10551
     Using radial grid of 1177 points,  6 beta functions with:
                l(1) =   0
                l(2) =   0
                l(3) =   1
                l(4) =   1
                l(5) =   2
                l(6) =   2
     Q(r) pseudized with 0 coefficients

     PseudoPot. # 2 for  S read from file:
     /home/mxm2/Documents/internal_and_full_opt/Lipatov_monolayer_25_1x5x1_graphene_2x4x1_heterostructure_internal_opt/S.pbe-n-rrkjus_psl.0.1.UPF
     MD5 check sum: 884d5d7fb9162c2ff34d476565c2f60b
     Pseudo is Ultrasoft + core correction, Zval =  6.0
     Generated using "atomic" code by A. Dal Corso  v.5.0.99 svn rev. 10869
     Using radial grid of 1151 points,  4 beta functions with:
                l(1) =   0
                l(2) =   0
                l(3) =   1
                l(4) =   1
     Q(r) pseudized with 0 coefficients

     PseudoPot. # 3 for  C read from file:
     /home/mxm2/Documents/internal_and_full_opt/Lipatov_monolayer_25_1x5x1_graphene_2x4x1_heterostructure_internal_opt/C.pbe-n-rrkjus_psl.0.1.UPF
     MD5 check sum: b524aa6f26bea011a39bb5addbeca40d
     Pseudo is Ultrasoft + core correction, Zval =  4.0
     Generated using "atomic" code by A. Dal Corso  v.5.0.99 svn rev. 10869
     Using radial grid of 1073 points,  4 beta functions with:
                l(1) =   0
                l(2) =   0
                l(3) =   1
                l(4) =   1
     Q(r) pseudized with 0 coefficients

     vdW kernel table read from file vdW_kernel_table
     MD5 check sum: 48e77a2e26edf626eeb0eaa751ad5cac

     atomic species   valence    mass     pseudopotential
        Ti            12.00    47.86700     Ti( 1.00)
        S              6.00    32.06600      S( 1.00)
        C              4.00    12.01070      C( 1.00)

      2 Sym. Ops. (no inversion) found ( 1 have fractional translation)

   Cartesian axes

     site n.     atom                  positions (alat units)
         1           Ti  tau(   1) = (   1.6250293   0.8446750   2.6185500  )
         2           Ti  tau(   2) = (   1.6250293   4.2233750   2.6185500  )
         3           Ti  tau(   3) = (   1.6250293   7.6020750   2.6185500  )
         4           Ti  tau(   4) = (   1.6250293  10.9807750   2.6185500  )
         5           Ti  tau(   5) = (   1.6250293  14.3594750   2.6185500  )
         6           Ti  tau(   6) = (   4.0809091   2.5340250   0.0000000  )
         7           Ti  tau(   7) = (   4.0809091   5.9127250   0.0000000  )
         8           Ti  tau(   8) = (   4.0809091   9.2914250   0.0000000  )
         9           Ti  tau(   9) = (   4.0809091  12.6701250   0.0000000  )
        10           Ti  tau(  10) = (   4.0809091  16.0488250   0.0000000  )
        11           S   tau(  11) = (   3.0372178   0.8446750  23.5034250  )
        12           S   tau(  12) = (   3.0372178   4.2233750  23.5034250  )
        13           S   tau(  13) = (   3.0372178   7.6020750  23.5034250  )
        14           S   tau(  14) = (   3.0372178  10.9807750  23.5034250  )
        15           S   tau(  15) = (   3.0372178  14.3594750  23.5034250  )
        16           S   tau(  16) = (   2.6687206   2.5340250   4.1151250  )
        17           S   tau(  17) = (   2.6687206   5.9127250   4.1151250  )
        18           S   tau(  18) = (   2.6687206   9.2914250   4.1151250  )
        19           S   tau(  19) = (   2.6687206  12.6701250   4.1151250  )
        20           S   tau(  20) = (   2.6687206  16.0488250   4.1151250  )
        21           S   tau(  21) = (   4.0802362   0.8446750   1.7549500  )
        22           S   tau(  22) = (   4.0802362   4.2233750   1.7549500  )
        23           S   tau(  23) = (   4.0802362   7.6020750   1.7549500  )
        24           S   tau(  24) = (   4.0802362  10.9807750   1.7549500  )
        25           S   tau(  25) = (   4.0802362  14.3594750   1.7549500  )
        26           S   tau(  26) = (   1.6256973   2.5340250   0.8636000  )
        27           S   tau(  27) = (   1.6256973   5.9127250   0.8636000  )
        28           S   tau(  28) = (   1.6256973   9.2914250   0.8636000  )
        29           S   tau(  29) = (   1.6256973  12.6701250   0.8636000  )
        30           S   tau(  30) = (   1.6256973  16.0488250   0.8636000  )
        31           S   tau(  31) = (   0.2056915   0.8446750  23.4739500  )
        32           S   tau(  32) = (   0.2056915   4.2233750  23.4739500  )
        33           S   tau(  33) = (   0.2056915   7.6020750  23.4739500  )
        34           S   tau(  34) = (   0.2056915  10.9807750  23.4739500  )
        35           S   tau(  35) = (   0.2056915  14.3594750  23.4739500  )
        36           S   tau(  36) = (   0.5526469   2.5340250   4.1446000  )
        37           S   tau(  37) = (   0.5526469   5.9127250   4.1446000  )
        38           S   tau(  38) = (   0.5526469   9.2914250   4.1446000  )
        39           S   tau(  39) = (   0.5526469  12.6701250   4.1446000  )
        40           S   tau(  40) = (   0.5526469  16.0488250   4.1446000  )
        41           C   tau(  41) = (   1.8553500   3.5198452   7.3211400  )
        42           C   tau(  42) = (   1.8553500   7.7432202   7.3211400  )
        43           C   tau(  43) = (   1.8553500  11.9665952   7.3211400  )
        44           C   tau(  44) = (   1.8553500  16.1899702   7.3211400  )
        45           C   tau(  45) = (   4.3291500   3.5198452   7.3211400  )
        46           C   tau(  46) = (   4.3291500   7.7432202   7.3211400  )
        47           C   tau(  47) = (   4.3291500  11.9665952   7.3211400  )
        48           C   tau(  48) = (   4.3291500  16.1899702   7.3211400  )
        49           C   tau(  49) = (   1.8553500   0.7035298   7.3211400  )
        50           C   tau(  50) = (   1.8553500   4.9269048   7.3211400  )
        51           C   tau(  51) = (   1.8553500   9.1502798   7.3211400  )
        52           C   tau(  52) = (   1.8553500  13.3736548   7.3211400  )
        53           C   tau(  53) = (   4.3291500   0.7035298   7.3211400  )
        54           C   tau(  54) = (   4.3291500   4.9269048   7.3211400  )
        55           C   tau(  55) = (   4.3291500   9.1502798   7.3211400  )
        56           C   tau(  56) = (   4.3291500  13.3736548   7.3211400  )
        57           C   tau(  57) = (   0.6184500   1.4081577   7.3211400  )
        58           C   tau(  58) = (   0.6184500   5.6315327   7.3211400  )
        59           C   tau(  59) = (   0.6184500   9.8549077   7.3211400  )
        60           C   tau(  60) = (   0.6184500  14.0782827   7.3211400  )
        61           C   tau(  61) = (   3.0922500   1.4081577   7.3211400  )
        62           C   tau(  62) = (   3.0922500   5.6315327   7.3211400  )
        63           C   tau(  63) = (   3.0922500   9.8549077   7.3211400  )
        64           C   tau(  64) = (   3.0922500  14.0782827   7.3211400  )
        65           C   tau(  65) = (   0.6184500   2.8152173   7.3211400  )
        66           C   tau(  66) = (   0.6184500   7.0385923   7.3211400  )
        67           C   tau(  67) = (   0.6184500  11.2619673   7.3211400  )
        68           C   tau(  68) = (   0.6184500  15.4853423   7.3211400  )
        69           C   tau(  69) = (   3.0922500   2.8152173   7.3211400  )
        70           C   tau(  70) = (   3.0922500   7.0385923   7.3211400  )
        71           C   tau(  71) = (   3.0922500  11.2619673   7.3211400  )
        72           C   tau(  72) = (   3.0922500  15.4853423   7.3211400  )

     number of k points=     8  gaussian smearing, width (Ry)=  0.0200
                       cart. coord. in units 2pi/alat
        k(    1) = (   0.0000000   0.0000000   0.0000000), wk =   0.1666667
        k(    2) = (   0.0000000  -0.0295972   0.0000000), wk =   0.1666667
        k(    3) = (   0.0336864   0.0000000   0.0000000), wk =   0.3333333
        k(    4) = (   0.0336864  -0.0295972   0.0000000), wk =   0.3333333
        k(    5) = (   0.0673727   0.0000000   0.0000000), wk =   0.3333333
        k(    6) = (   0.0673727  -0.0295972   0.0000000), wk =   0.3333333
        k(    7) = (  -0.1010591   0.0000000   0.0000000), wk =   0.1666667
        k(    8) = (  -0.1010591  -0.0295972   0.0000000), wk =   0.1666667

     Largest allocated arrays     est. size (Mb)     dimensions
     Largest temporary arrays     est. size (Mb)     dimensions

     Check: negative/imaginary core charge=   -0.000006    0.000000

     Initial potential from superposition of free atoms
     Check: negative starting charge=   -0.024324

     starting charge  427.98291, renormalised to  428.00000

     negative rho (up, down):  0.243E-01 0.000E+00

     *
[...]
Ti       0.825607704   0.750000000  -0.012759159
Ti       0.825074112   0.949780203  -0.013177900
S        0.618312673   0.049515117   0.923899892
S        0.618022276   0.250000000   0.923560089
S        0.618312673   0.450484883   0.923899892
S        0.618810435   0.650325799   0.924500661
S        0.618810435   0.849674201   0.924500661
S        0.530290574   0.150372769   0.159836142
S        0.530290574   0.349627231   0.159836142
S        0.536003303   0.549369944   0.159678100
S        0.539477242   0.750000000   0.159534174
S        0.536003303   0.950630056   0.159678100
S        0.825602757   0.050182822   0.059247695
S        0.824521299   0.250000000   0.058839924
S        0.825602757   0.449817178   0.059247695
S        0.827408211   0.649844298   0.059880535
S        0.827408211   0.850155702   0.059880535
S        0.325311766   0.149838140   0.024134862
S        0.325311766   0.350161860   0.024134862
S        0.326413976   0.550202726   0.024778894
S        0.327141989   0.750000000   0.025203691
S        0.326413976   0.949797274   0.024778894
S        0.033521784   0.049497445   0.924681280
S        0.033203237   0.250000000   0.924388064
S        0.033521784   0.450502555   0.924681280
S        0.034057127   0.650327324   0.925200585
S        0.034057127   0.849672676   0.925200585
S        0.114476441   0.150328734   0.158371526
S        0.114476441   0.349671266   0.158371526
S        0.120150316   0.549477310   0.159714164
S        0.123701223   0.750000000   0.160463490
S        0.120150316   0.950522690   0.159714164
C        0.375665079   0.208245320   0.306097290
C        0.375593805   0.458234946   0.305880946
C        0.375520871   0.708231011   0.305517463
C        0.375600332   0.958226003   0.305740196
C        0.875662643   0.208242091   0.306150022
C        0.875568799   0.458236748   0.305927350
C        0.875503909   0.708237329   0.305557789
C        0.875602889   0.958229181   0.305776934
C        0.375593805   0.041765054   0.305880946
C        0.375665079   0.291754680   0.306097290
C        0.375600332   0.541773997   0.305740196
C        0.375520871   0.791768989   0.305517463
C        0.875568799   0.041763252   0.305927350
C        0.875662643   0.291757909   0.306150022
C        0.875602889   0.541770819   0.305776934
C        0.875503909   0.791762671   0.305557789
C        0.125654249   0.083233655   0.305972638
C        0.125638122   0.333239050   0.306095410
C        0.125542980   0.583240580   0.305647441
C        0.125555306   0.833240709   0.305522676
C        0.625695853   0.083239790   0.306036002
C        0.625667141   0.333246423   0.306164204
C        0.625556344   0.583241819   0.305682572
C        0.625578664   0.833239529   0.305555424
C        0.125638122   0.166760950   0.306095410
C        0.125654249   0.416766345   0.305972638
C        0.125555306   0.666759291   0.305522676
C        0.125542980   0.916759420   0.305647441
C        0.625667141   0.166753577   0.306164204
C        0.625695853   0.416760210   0.306036002
C        0.625578664   0.666760471   0.305555424
C        0.625556344   0.916758181   0.305682572

     Writing output data file TiS3.save
     Check: negative starting charge=   -0.023309
     NEW-OLD atomic charge density approx. for the potential

     Check: negative/imaginary core charge=   -0.000006    0.000000
     Check: negative starting charge=   -0.023298

[...]

     Self-consistent Calculation

[...]

     Threshold (ethr) on eigenvalues was too large:
     Diagonalizing with lowered threshold

     Davidson diagonalization with overlap
     ethr =  4.12E-08,  avg # of iterations =  4.2

[...]

     total energy              =   -2323.14448671 Ry
     Harris-Foulkes estimate   =   -2323.14448671 Ry
     estimated scf accuracy    <       0.00000003 Ry

     iteration # 12     ecut=    39.00 Ry     beta=0.30
     Davidson diagonalization with overlap
     ethr =  6.25E-12,  avg # of iterations =  2.2

     negative rho (up, down):  0.303E-01 0.000E+00

     End of self-consistent calculation

[...]

          k = 0.0674-0.0296 0.0000 ( 57938 PWs)   bands (ev):

[...]

          k =-0.1011-0.0296 0.0000 ( 57984 PWs)   bands (ev):

   -56.3386 -56.3355 -56.3302 -56.3292 -56.3244 -56.3019 -56.3000 -56.2973
   -56.2966 -56.2937 -32.7024 -32.6688 -32.6685 -32.6679 -32.6515 -32.6468
   -32.6392 -32.6376 -32.6351 -32.6350 -32.6302 -32.6214 -32.6201 -32.6160
   -32.6104 -32.6101 -32.6091 -32.6038 -32.5809 -32.5779 -32.4312 -32.4273
   -32.4228 -32.4212 -32.4161 -32.3909 -32.3893 -32.3847 -32.3842 -32.3805
   -16.8928 -16.8902 -16.8897 -16.8870 -16.1571 -16.1566 -16.1540 -16.1535
   -14.7183 -14.7183 -14.7157 -14.7146 -14.2255 -14.2179 -14.1779 -14.1686
   -13.9792 -13.9782 -13.9318 -13.9315 -13.8213 -13.7766 -12.6783 -12.6780
   -12.6764 -12.6757 -11.5135 -11.5108 -11.5052 -11.5021 -11.1313 -11.1306
   -11.1281 -11.1276 -10.8136 -10.8080 -10.4578 -10.4483 -10.3881 -10.3763
   -10.2382 -10.2363 -10.1649 -10.1645 -10.1572 -10.1556 -10.1551 -10.1542
   -10.1341 -10.0557  -8.3951  -8.3951  -8.3948  -8.3944  -8.1826  -8.1821
    -8.1805  -8.1800  -6.9045  -6.9039  -6.9033  -6.9024  -6.3909  -6.3907
    -6.3900  -6.3898  -5.2761  -5.2752  -5.2749  -5.2740  -4.8053  -4.8051
    -4.7515  -4.7490  -4.5513  -4.5073  -4.1668  -4.1660  -4.1657  -4.1654
    -3.9870  -3.9836  -3.9039  -3.9035  -3.7902  -3.7898  -3.7589  -3.7574
    -3.7525  -3.7520  -3.7500  -3.7467  -3.5871  -3.5857  -3.5839  -3.5835
    -3.5173  -3.4936  -3.2972  -3.2967  -3.2754  -3.2734  -2.8960  -2.8677
    -2.8671  -2.8570  -2.8555  -2.8071  -2.7985  -2.7981  -2.7653  -2.7568
    -2.6357  -2.5668  -2.3338  -2.3195  -2.2970  -2.2872  -2.2779  -2.2549
    -2.2441  -2.2425  -2.2353  -2.1936  -2.1931  -2.1073  -2.0141  -1.9709
    -1.9675  -1.9665  -1.9506  -1.9506  -1.6778  -1.6727  -1.6663  -1.6606
    -1.5768  -1.5681  -1.5497  -1.5415  -0.9978  -0.9973  -0.9938  -0.9864
    -0.9638  -0.9636  -0.8052  -0.7988  -0.5309  -0.5288  -0.5225  -0.5218
    -0.4939  -0.4936  -0.4430  -0.4425  -0.3726  -0.3634  -0.2686  -0.2686
    -0.2560  -0.2556  -0.1707  -0.1653  -0.1399  -0.1332  -0.0938  -0.0917
    -0.0649  -0.0641   0.3696   0.3810   0.4029   0.4122   1.8320   1.8360
     1.8440   1.8460   2.1529   2.1555   2.1621   2.1635   2.2007   2.2054
     2.2309   2.2310   2.2421   2.3204   2.7211   2.7226   2.7414   2.7419
     2.8617   2.8952   2.8956   2.9113   2.9332   2.9333   3.0253   3.0323
     3.0535   3.0551   3.0974   3.1016   3.1305   3.1357   3.1392   3.1661
     3.2295   3.2373   3.2619   3.2649   3.6443   3.6446   3.6723   3.6726
     3.9326

     the Fermi energy is     1.3139 ev

!    total energy              =   -2323.14448671 Ry
     Harris-Foulkes estimate   =   -2323.14448671 Ry
     estimated scf accuracy    <          4.2E-09 Ry

     The total energy is the sum of the following terms:

     one-electron contribution =  -17071.90067819 Ry
     hartree contribution      =    8617.87905757 Ry
     xc contribution           =    -590.29977443 Ry
     ewald contribution        =    6721.18569229 Ry
     smearing contrib. (-TS)   =      -0.00878396 Ry

     convergence has been achieved in  12 iterations

     Forces acting on atoms (Ry/au):

     negative rho (up, down):  0.303E-01 0.000E+00
     atom    1 type  1   force =    -0.00054244   -0.00012946   -0.00010475
     atom    2 type  1   force =    -0.00041501    0.00000000    0.00006527
     atom    3 type  1   force =    -0.00054244    0.00012946   -0.00010475
     atom    4 type  1   force =    -0.00084010    0.00014916   -0.00011756
     atom    5 type  1   force =    -0.00084010   -0.00014916   -0.00011756
     atom    6 type  1   force =     0.00064034    0.00007655    0.00008455
     atom    7 type  1   force =     0.00064034   -0.00007655    0.00008455
     atom    8 type  1   force =     0.00065339   -0.00009151   -0.00010864
     atom    9 type  1   force =     0.00060190    0.00000000   -0.00037994
     atom   10 type  1   force =     0.00065339    0.00009151   -0.00010864
     atom   11 type  2   force =     0.00034163    0.00011661    0.00036858
     atom   12 type  2   force =     0.00029888    0.00000000    0.00050562
     atom   13 type  2   force =     0.00034163   -0.00011661    0.00036858
     atom   14 type  2   force =     0.00041122   -0.00012467    0.00010592
     atom   15 type  2   force =     0.00041122    0.00012467    0.00010592
     atom   16 type  2   force =     0.00009642   -0.00018096   -0.00014279
     atom   17 type  2   force =     0.00009642    0.00018096   -0.00014279
     atom   18 type  2   force =    -0.00039998    0.00031893   -0.00034508
     atom   19 type  2   force =    -0.00075799    0.00000000   -0.00018842
     atom   20 type  2   force =    -0.00039998   -0.00031893   -0.00034508
     atom   21 type  2   force =     0.00001913   -0.00005661   -0.00037846
     atom   22 type  2   force =     0.00016569    0.00000000   -0.00015914
     atom   23 type  2   force =     0.00001913    0.00005661   -0.00037846
     atom   24 type  2   force =    -0.00020136    0.00010630   -0.00071842
     atom   25 type  2   force =    -0.00020136   -0.00010630   -0.00071842
     atom   26 type  2   force =    -0.00009778    0.00011986    0.00071372
     atom   27 type  2   force =    -0.00009778   -0.00011986    0.00071372
     atom   28 type  2   force =    -0.00023217   -0.00011891    0.00041491
     atom   29 type  2   force =    -0.00032176    0.00000000    0.00016394
     atom   30 type  2   force =    -0.00023217    0.00011891    0.00041491
     atom   31 type  2   force =    -0.00008450    0.00018182   -0.00034810
     atom   32 type  2   force =    -0.00009747    0.00000000   -0.00021089
     atom   33 type  2   force =    -0.00008450   -0.00018182   -0.00034810
     atom   34 type  2   force =    -0.00005714   -0.00016356   -0.00061104
     atom   35 type  2   force =    -0.00005714    0.00016356   -0.00061104
     atom   36 type  2   force =     0.00044038   -0.00008803    0.00062540
     atom   37 type  2   force =     0.00044038    0.00008803    0.00062540
     atom   38 type  2   force =    -0.00012341    0.00012562    0.00018349
     atom   39 type  2   force =    -0.00046118    0.00000000    0.00021842
     atom   40 type  2   force =    -0.00012341   -0.00012562    0.00018349
     atom   41 type  3   force =    -0.00008906   -0.00030049    0.00048913
     atom   42 type  3   force =     0.00064674    0.00082844   -0.00006074
     atom   43 type  3   force =     0.00027704    0.00062617    0.00004044
     atom   44 type  3   force =    -0.00042309    0.00064706    0.00066070
     atom   45 type  3   force =    -0.00027340    0.00004675    0.00001452
     atom   46 type  3   force =     0.00080528    0.00097528   -0.00055156
     atom   47 type  3   force =     0.00040936    0.00054313   -0.00058710
     atom   48 type  3   force =    -0.00069377    0.00066411    0.00005574
     atom   49 type  3   force =     0.00064674   -0.00082844   -0.00006074
     atom   50 type  3   force =    -0.00008906    0.00030049    0.00048913
     atom   51 type  3   force =    -0.00042309   -0.00064706    0.00066070
     atom   52 type  3   force =     0.00027704   -0.00062617    0.00004044
     atom   53 type  3   force =     0.00080528   -0.00097528   -0.00055156
     atom   54 type  3   force =    -0.00027340   -0.00004675    0.00001452
     atom   55 type  3   force =    -0.00069377   -0.00066411    0.00005574
     atom   56 type  3   force =     0.00040936   -0.00054313   -0.00058710
     atom   57 type  3   force =    -0.00052540    0.00056220   -0.00022690
     atom   58 type  3   force =     0.00030150    0.00019380    0.00018607
     atom   59 type  3   force =     0.00052559    0.00019034    0.00060577
     atom   60 type  3   force =    -0.00032278    0.00009267    0.00015611
     atom   61 type  3   force =    -0.00077184    0.00033843   -0.00053490
     atom   62 type  3   force =     0.00028882   -0.00013215   -0.00013076
     atom   63 type  3   force =     0.00067779    0.00016566    0.00036095
     atom   64 type  3   force =    -0.00036294    0.00021245   -0.00010662
     atom   65 type  3   force =     0.00030150   -0.00019380    0.00018607
     atom   66 type  3   force =    -0.00052540   -0.00056220   -0.00022690
     atom   67 type  3   force =    -0.00032278   -0.00009267    0.00015611
     atom   68 type  3   force =     0.00052559   -0.00019034    0.00060577
     atom   69 type  3   force =     0.00028882    0.00013215   -0.00013076
     atom   70 type  3   force =    -0.00077184   -0.00033843   -0.00053490
     atom   71 type  3   force =    -0.00036294   -0.00021245   -0.00010662
     atom   72 type  3   force =     0.00067779   -0.00016566    0.00036095

     Total force =     0.005801     Total SCF correction =     0.000127

     bfgs converged in  22 scf cycles and  21 bfgs steps
     (criteria: energy < 0.10E-03, force < 0.10E-02)

     End of BFGS Geometry Optimization

     Final energy   =   -2323.1444867149 Ry
Begin final coordinates

ATOMIC_POSITIONS (crystal)
Ti       0.326402715   0.050229693   0.097062356
Ti       0.325172808   0.250000000   0.096589799
Ti       0.326402715   0.449770307   0.097062356
Ti       0.328542199   0.649817364   0.097695781
Ti       0.328542199   0.850182636   0.097695781
Ti       0.824328236   0.149849869  -0.013789367
Ti       0.824328236   0.350150131  -0.013789367
Ti       0.825074112   0.550219797  -0.013177900
Ti       0.825607704   0.750000000  -0.012759159
Ti       0.825074112   0.949780203  -0.013177900
S        0.618312673   0.049515117   0.923899892
S        0.618022276   0.250000000   0.923560089
S        0.618312673   0.450484883   0.923899892
S        0.618810435   0.650325799   0.924500661
S        0.618810435   0.849674201   0.924500661
S        0.530290574   0.150372769   0.159836142
S        0.530290574   0.349627231   0.159836142
S        0.536003303   0.549369944   0.159678100
S        0.539477242   0.750000000   0.159534174
S        0.536003303   0.950630056   0.159678100
S        0.825602757   0.050182822   0.059247695
S        0.824521299   0.250000000   0.058839924
S        0.825602757   0.449817178   0.059247695
S        0.827408211   0.649844298   0.059880535
S        0.827408211   0.850155702   0.059880535
S        0.325311766   0.149838140   0.024134862
S        0.325311766   0.350161860   0.024134862
S        0.326413976   0.550202726   0.024778894
S        0.327141989   0.750000000   0.025203691
S        0.326413976   0.949797274   0.024778894
S        0.033521784   0.049497445   0.924681280
S        0.033203237   0.250000000   0.924388064
S        0.033521784   0.450502555   0.924681280
S        0.034057127   0.650327324   0.925200585
S        0.034057127   0.849672676   0.925200585
S        0.114476441   0.150328734   0.158371526
S        0.114476441   0.349671266   0.158371526
S        0.120150316   0.549477310   0.159714164
S        0.123701223   0.750000000   0.160463490
S        0.120150316   0.950522690   0.159714164
C        0.375665079   0.208245320   0.306097290
C        0.375593805   0.458234946   0.305880946
C        0.375520871   0.708231011   0.305517463
C        0.375600332   0.958226003   0.305740196
C        0.875662643   0.208242091   0.306150022
C        0.875568799   0.458236748   0.305927350
C        0.875503909   0.708237329   0.305557789
C        0.875602889   0.958229181   0.305776934
C        0.375593805   0.041765054   0.305880946
C        0.375665079   0.291754680   0.306097290
C        0.375600332   0.541773997   0.305740196
C        0.375520871   0.791768989   0.305517463
C        0.875568799   0.041763252   0.305927350
C        0.875662643   0.291757909   0.306150022
C        0.875602889   0.541770819   0.305776934
C        0.875503909   0.791762671   0.305557789
C        0.125654249   0.083233655   0.305972638
C        0.125638122   0.333239050   0.306095410
C        0.125542980   0.583240580   0.305647441
C        0.125555306   0.833240709   0.305522676
C        0.625695853   0.083239790   0.306036002
C        0.625667141   0.333246423   0.306164204
C        0.625556344   0.583241819   0.305682572
C        0.625578664   0.833239529   0.305555424
C        0.125638122   0.166760950   0.306095410
C        0.125654249   0.416766345   0.305972638
C        0.125555306   0.666759291   0.305522676
C        0.125542980   0.916759420   0.305647441
C        0.625667141   0.166753577   0.306164204
C        0.625695853   0.416760210   0.306036002
C        0.625578664   0.666760471   0.305555424
C        0.625556344   0.916758181   0.305682572
End final coordinates

     Writing output data file TiS3.save

     General routines

     Parallel routines

   This run was terminated on:   2:23:32  19Nov2019

   JOB DONE.